c Random generated cnf formula, satisfiable: false
p cnf 10 50
-5 -1 4 0
-10 2 3 0
-6 -3 8 0
4 -2 -5 0
-10 9 2 0
-2 -4 1 0
5 -4 -6 0
6 9 -7 0
-8 5 -6 0
-6 -4 7 0
2 4 -5 0
8 10 4 0
5 -2 -7 0
10 -7 1 0
3 4 2 0
3 -2 8 0
-6 1 -4 0
7 -4 -3 0
2 3 -5 0
-9 5 2 0
9 -10 -1 0
-5 2 -8 0
-9 -7 -8 0
-1 5 6 0
10 -2 9 0
-9 -4 10 0
9 -4 5 0
5 8 6 0
6 -8 2 0
-9 3 -4 0
4 9 -7 0
2 -1 7 0
-1 -4 -2 0
-1 -2 -5 0
-10 -8 9 0
7 -10 5 0
10 6 -9 0
2 -10 -1 0
-8 -10 -7 0
-8 -6 9 0
-6 7 3 0
10 6 3 0
6 -9 -10 0
-4 -3 -2 0
-3 4 -6 0
-7 9 4 0
8 1 4 0
-8 10 6 0
-9 -2 6 0
6 10 2 0
